\ENCODING=ISO-8859-1
\Problem name: IloCplex

Minimize
 obj1: 53604 X_(V0)(0)(1)#0 + 51108 X_(V0)(0)(2)#1 + 60090 X_(V0)(0)(3)#2
       + 12976 X_(V0)(0)(4)#3 + 46404 X_(V0)(0)(5)#4 + 77136 X_(V0)(0)(6)#5
       + 35192 X_(V0)(0)(7)#6 + 27748 X_(V0)(0)(8)#7 + 119750 X_(V0)(0)(9)#8
       + 45258 X_(V0)(1)(0)#9 + 40676 X_(V0)(2)(0)#10 + 39478 X_(V0)(3)(0)#11
       + 15666 X_(V0)(4)(0)#12 + 45456 X_(V0)(5)(0)#13 + 71208 X_(V0)(6)(0)#14
       + 31216 X_(V0)(7)(0)#15 + 20906 X_(V0)(8)(0)#16 + 112930 X_(V0)(9)(0)#17
       + 50900 X_(V0)(1)(2)#19 + 8336 X_(V0)(1)(3)#20 + 54994 X_(V0)(1)(4)#21
       + 48760 X_(V0)(1)(5)#22 + 18180 X_(V0)(1)(6)#23 + 49266 X_(V0)(1)(7)#24
       + 41820 X_(V0)(1)(8)#25 + 119542 X_(V0)(1)(9)#26 + 49288 X_(V0)(2)(1)#27
       + 55774 X_(V0)(2)(3)#29 + 50412 X_(V0)(2)(4)#30 + 24714 X_(V0)(2)(5)#31
       + 72820 X_(V0)(2)(6)#32 + 34704 X_(V0)(2)(7)#33 + 37240 X_(V0)(2)(8)#34
       + 75332 X_(V0)(2)(9)#35 + 51002 X_(V0)(3)(1)#36 + 45120 X_(V0)(3)(2)#37
       + 49212 X_(V0)(3)(4)#39 + 42980 X_(V0)(3)(5)#40 + 74534 X_(V0)(3)(6)#41
       + 43484 X_(V0)(3)(7)#42 + 36040 X_(V0)(3)(8)#43 + 113760 X_(V0)(3)(9)#44
       + 53456 X_(V0)(4)(1)#45 + 50906 X_(V0)(4)(2)#46 + 59940 X_(V0)(4)(3)#47
       + 49754 X_(V0)(4)(5)#49 + 76988 X_(V0)(4)(6)#50 + 38346 X_(V0)(4)(7)#51
       + 30902 X_(V0)(4)(8)#52 + 123076 X_(V0)(4)(9)#53 + 54142 X_(V0)(5)(1)#54
       + 27364 X_(V0)(5)(2)#55 + 60626 X_(V0)(5)(3)#56 + 53998 X_(V0)(5)(4)#57
       + 77672 X_(V0)(5)(6)#59 + 42484 X_(V0)(5)(7)#60 + 41470 X_(V0)(5)(8)#61
       + 95516 X_(V0)(5)(9)#62 + 21078 X_(V0)(6)(1)#63 + 76848 X_(V0)(6)(2)#64
       + 34286 X_(V0)(6)(3)#65 + 80942 X_(V0)(6)(4)#66 + 74710 X_(V0)(6)(5)#67
       + 75214 X_(V0)(6)(7)#69 + 67770 X_(V0)(6)(8)#70 + 145490 X_(V0)(6)(9)#71
       + 50430 X_(V0)(7)(1)#72 + 38396 X_(V0)(7)(2)#73 + 56916 X_(V0)(7)(3)#74
       + 40050 X_(V0)(7)(4)#75 + 42502 X_(V0)(7)(5)#76 + 73962 X_(V0)(7)(6)#77
       + 14666 X_(V0)(7)(8)#79 + 75368 X_(V0)(7)(9)#80 + 43510 X_(V0)(8)(1)#81
       + 40960 X_(V0)(8)(2)#82 + 49994 X_(V0)(8)(3)#83 + 28042 X_(V0)(8)(4)#84
       + 40862 X_(V0)(8)(5)#85 + 67042 X_(V0)(8)(6)#86 + 17538 X_(V0)(8)(7)#87
       + 109602 X_(V0)(8)(9)#89 + 121542 X_(V0)(9)(1)#90
       + 76884 X_(V0)(9)(2)#91 + 128026 X_(V0)(9)(3)#92
       + 122664 X_(V0)(9)(4)#93 + 96974 X_(V0)(9)(5)#94
       + 145074 X_(V0)(9)(6)#95 + 106956 X_(V0)(9)(7)#96
       + 109492 X_(V0)(9)(8)#97
Subject To
 Todos_partem_da_Entrada_#0:     X_(V0)(0)(1)#0 + X_(V0)(0)(2)#1
                                 + X_(V0)(0)(3)#2 + X_(V0)(0)(4)#3
                                 + X_(V0)(0)(5)#4 + X_(V0)(0)(6)#5
                                 + X_(V0)(0)(7)#6 + X_(V0)(0)(8)#7
                                 + X_(V0)(0)(9)#8  = 1
 Todos_voltam_a_Entrada#1:       X_(V0)(1)(0)#9 + X_(V0)(2)(0)#10
                                 + X_(V0)(3)(0)#11 + X_(V0)(4)(0)#12
                                 + X_(V0)(5)(0)#13 + X_(V0)(6)(0)#14
                                 + X_(V0)(7)(0)#15 + X_(V0)(8)(0)#16
                                 + X_(V0)(9)(0)#17  = 1
 Saidas_node1#2:                 X_(V0)(1)(0)#9 + X_(V0)(1)(1)#18
                                 + X_(V0)(1)(2)#19 + X_(V0)(1)(3)#20
                                 + X_(V0)(1)(4)#21 + X_(V0)(1)(5)#22
                                 + X_(V0)(1)(6)#23 + X_(V0)(1)(7)#24
                                 + X_(V0)(1)(8)#25 + X_(V0)(1)(9)#26  = 1
 Saidas_node2#3:                 X_(V0)(2)(0)#10 + X_(V0)(2)(1)#27
                                 + X_(V0)(2)(2)#28 + X_(V0)(2)(3)#29
                                 + X_(V0)(2)(4)#30 + X_(V0)(2)(5)#31
                                 + X_(V0)(2)(6)#32 + X_(V0)(2)(7)#33
                                 + X_(V0)(2)(8)#34 + X_(V0)(2)(9)#35  = 1
 Saidas_node3#4:                 X_(V0)(3)(0)#11 + X_(V0)(3)(1)#36
                                 + X_(V0)(3)(2)#37 + X_(V0)(3)(3)#38
                                 + X_(V0)(3)(4)#39 + X_(V0)(3)(5)#40
                                 + X_(V0)(3)(6)#41 + X_(V0)(3)(7)#42
                                 + X_(V0)(3)(8)#43 + X_(V0)(3)(9)#44  = 1
 Saidas_node4#5:                 X_(V0)(4)(0)#12 + X_(V0)(4)(1)#45
                                 + X_(V0)(4)(2)#46 + X_(V0)(4)(3)#47
                                 + X_(V0)(4)(4)#48 + X_(V0)(4)(5)#49
                                 + X_(V0)(4)(6)#50 + X_(V0)(4)(7)#51
                                 + X_(V0)(4)(8)#52 + X_(V0)(4)(9)#53  = 1
 Saidas_node5#6:                 X_(V0)(5)(0)#13 + X_(V0)(5)(1)#54
                                 + X_(V0)(5)(2)#55 + X_(V0)(5)(3)#56
                                 + X_(V0)(5)(4)#57 + X_(V0)(5)(5)#58
                                 + X_(V0)(5)(6)#59 + X_(V0)(5)(7)#60
                                 + X_(V0)(5)(8)#61 + X_(V0)(5)(9)#62  = 1
 Saidas_node6#7:                 X_(V0)(6)(0)#14 + X_(V0)(6)(1)#63
                                 + X_(V0)(6)(2)#64 + X_(V0)(6)(3)#65
                                 + X_(V0)(6)(4)#66 + X_(V0)(6)(5)#67
                                 + X_(V0)(6)(6)#68 + X_(V0)(6)(7)#69
                                 + X_(V0)(6)(8)#70 + X_(V0)(6)(9)#71  = 1
 Saidas_node7#8:                 X_(V0)(7)(0)#15 + X_(V0)(7)(1)#72
                                 + X_(V0)(7)(2)#73 + X_(V0)(7)(3)#74
                                 + X_(V0)(7)(4)#75 + X_(V0)(7)(5)#76
                                 + X_(V0)(7)(6)#77 + X_(V0)(7)(7)#78
                                 + X_(V0)(7)(8)#79 + X_(V0)(7)(9)#80  = 1
 Saidas_node8#9:                 X_(V0)(8)(0)#16 + X_(V0)(8)(1)#81
                                 + X_(V0)(8)(2)#82 + X_(V0)(8)(3)#83
                                 + X_(V0)(8)(4)#84 + X_(V0)(8)(5)#85
                                 + X_(V0)(8)(6)#86 + X_(V0)(8)(7)#87
                                 + X_(V0)(8)(8)#88 + X_(V0)(8)(9)#89  = 1
 Saidas_node9#10:                X_(V0)(9)(0)#17 + X_(V0)(9)(1)#90
                                 + X_(V0)(9)(2)#91 + X_(V0)(9)(3)#92
                                 + X_(V0)(9)(4)#93 + X_(V0)(9)(5)#94
                                 + X_(V0)(9)(6)#95 + X_(V0)(9)(7)#96
                                 + X_(V0)(9)(8)#97 + X_(V0)(9)(9)#98  = 1
 _Entradas_node1#11:             X_(V0)(0)(1)#0 + X_(V0)(1)(1)#18
                                 + X_(V0)(2)(1)#27 + X_(V0)(3)(1)#36
                                 + X_(V0)(4)(1)#45 + X_(V0)(5)(1)#54
                                 + X_(V0)(6)(1)#63 + X_(V0)(7)(1)#72
                                 + X_(V0)(8)(1)#81 + X_(V0)(9)(1)#90  = 1
 _Entradas_node2#12:             X_(V0)(0)(2)#1 + X_(V0)(1)(2)#19
                                 + X_(V0)(2)(2)#28 + X_(V0)(3)(2)#37
                                 + X_(V0)(4)(2)#46 + X_(V0)(5)(2)#55
                                 + X_(V0)(6)(2)#64 + X_(V0)(7)(2)#73
                                 + X_(V0)(8)(2)#82 + X_(V0)(9)(2)#91  = 1
 _Entradas_node3#13:             X_(V0)(0)(3)#2 + X_(V0)(1)(3)#20
                                 + X_(V0)(2)(3)#29 + X_(V0)(3)(3)#38
                                 + X_(V0)(4)(3)#47 + X_(V0)(5)(3)#56
                                 + X_(V0)(6)(3)#65 + X_(V0)(7)(3)#74
                                 + X_(V0)(8)(3)#83 + X_(V0)(9)(3)#92  = 1
 _Entradas_node4#14:             X_(V0)(0)(4)#3 + X_(V0)(1)(4)#21
                                 + X_(V0)(2)(4)#30 + X_(V0)(3)(4)#39
                                 + X_(V0)(4)(4)#48 + X_(V0)(5)(4)#57
                                 + X_(V0)(6)(4)#66 + X_(V0)(7)(4)#75
                                 + X_(V0)(8)(4)#84 + X_(V0)(9)(4)#93  = 1
 _Entradas_node5#15:             X_(V0)(0)(5)#4 + X_(V0)(1)(5)#22
                                 + X_(V0)(2)(5)#31 + X_(V0)(3)(5)#40
                                 + X_(V0)(4)(5)#49 + X_(V0)(5)(5)#58
                                 + X_(V0)(6)(5)#67 + X_(V0)(7)(5)#76
                                 + X_(V0)(8)(5)#85 + X_(V0)(9)(5)#94  = 1
 _Entradas_node6#16:             X_(V0)(0)(6)#5 + X_(V0)(1)(6)#23
                                 + X_(V0)(2)(6)#32 + X_(V0)(3)(6)#41
                                 + X_(V0)(4)(6)#50 + X_(V0)(5)(6)#59
                                 + X_(V0)(6)(6)#68 + X_(V0)(7)(6)#77
                                 + X_(V0)(8)(6)#86 + X_(V0)(9)(6)#95  = 1
 _Entradas_node7#17:             X_(V0)(0)(7)#6 + X_(V0)(1)(7)#24
                                 + X_(V0)(2)(7)#33 + X_(V0)(3)(7)#42
                                 + X_(V0)(4)(7)#51 + X_(V0)(5)(7)#60
                                 + X_(V0)(6)(7)#69 + X_(V0)(7)(7)#78
                                 + X_(V0)(8)(7)#87 + X_(V0)(9)(7)#96  = 1
 _Entradas_node8#18:             X_(V0)(0)(8)#7 + X_(V0)(1)(8)#25
                                 + X_(V0)(2)(8)#34 + X_(V0)(3)(8)#43
                                 + X_(V0)(4)(8)#52 + X_(V0)(5)(8)#61
                                 + X_(V0)(6)(8)#70 + X_(V0)(7)(8)#79
                                 + X_(V0)(8)(8)#88 + X_(V0)(9)(8)#97  = 1
 _Entradas_node9#19:             X_(V0)(0)(9)#8 + X_(V0)(1)(9)#26
                                 + X_(V0)(2)(9)#35 + X_(V0)(3)(9)#44
                                 + X_(V0)(4)(9)#53 + X_(V0)(5)(9)#62
                                 + X_(V0)(6)(9)#71 + X_(V0)(7)(9)#80
                                 + X_(V0)(8)(9)#89 + X_(V0)(9)(9)#98  = 1
 Passar_por_0_apenas_uma_vez_viajante_g0#20: X_(V0)(0)(1)#0 + X_(V0)(0)(2)#1
                                 + X_(V0)(0)(3)#2 + X_(V0)(0)(4)#3
                                 + X_(V0)(0)(5)#4 + X_(V0)(0)(6)#5
                                 + X_(V0)(0)(7)#6 + X_(V0)(0)(8)#7
                                 + X_(V0)(0)(9)#8 + X_(V0)(0)(0)#99  = 1
 c22#21:                         X_(V0)(1)(1)#18 + X_(V0)(2)(2)#28
                                 + X_(V0)(3)(3)#38 + X_(V0)(4)(4)#48
                                 + X_(V0)(5)(5)#58 + X_(V0)(6)(6)#68
                                 + X_(V0)(7)(7)#78 + X_(V0)(8)(8)#88
                                 + X_(V0)(9)(9)#98 + X_(V0)(0)(0)#99 <= 0
 c23#22:                         - X_(V0)(0)(1)#0 - X_(V0)(0)(2)#1
                                 - X_(V0)(0)(3)#2 - X_(V0)(0)(4)#3
                                 - X_(V0)(0)(5)#4 - X_(V0)(0)(6)#5
                                 - X_(V0)(0)(7)#6 - X_(V0)(0)(8)#7
                                 - X_(V0)(0)(9)#8 + X_(V0)(1)(0)#9
                                 + X_(V0)(2)(0)#10 + X_(V0)(3)(0)#11
                                 + X_(V0)(4)(0)#12 + X_(V0)(5)(0)#13
                                 + X_(V0)(6)(0)#14 + X_(V0)(7)(0)#15
                                 + X_(V0)(8)(0)#16 + X_(V0)(9)(0)#17 <= 0
 c24#23:                         X_(V0)(0)(1)#0 - X_(V0)(1)(0)#9
                                 - X_(V0)(1)(2)#19 - X_(V0)(1)(3)#20
                                 - X_(V0)(1)(4)#21 - X_(V0)(1)(5)#22
                                 - X_(V0)(1)(6)#23 - X_(V0)(1)(7)#24
                                 - X_(V0)(1)(8)#25 - X_(V0)(1)(9)#26
                                 + X_(V0)(2)(1)#27 + X_(V0)(3)(1)#36
                                 + X_(V0)(4)(1)#45 + X_(V0)(5)(1)#54
                                 + X_(V0)(6)(1)#63 + X_(V0)(7)(1)#72
                                 + X_(V0)(8)(1)#81 + X_(V0)(9)(1)#90 <= 0
 c25#24:                         X_(V0)(0)(2)#1 - X_(V0)(2)(0)#10
                                 + X_(V0)(1)(2)#19 - X_(V0)(2)(1)#27
                                 - X_(V0)(2)(3)#29 - X_(V0)(2)(4)#30
                                 - X_(V0)(2)(5)#31 - X_(V0)(2)(6)#32
                                 - X_(V0)(2)(7)#33 - X_(V0)(2)(8)#34
                                 - X_(V0)(2)(9)#35 + X_(V0)(3)(2)#37
                                 + X_(V0)(4)(2)#46 + X_(V0)(5)(2)#55
                                 + X_(V0)(6)(2)#64 + X_(V0)(7)(2)#73
                                 + X_(V0)(8)(2)#82 + X_(V0)(9)(2)#91 <= 0
 c26#25:                         X_(V0)(0)(3)#2 - X_(V0)(3)(0)#11
                                 + X_(V0)(1)(3)#20 + X_(V0)(2)(3)#29
                                 - X_(V0)(3)(1)#36 - X_(V0)(3)(2)#37
                                 - X_(V0)(3)(4)#39 - X_(V0)(3)(5)#40
                                 - X_(V0)(3)(6)#41 - X_(V0)(3)(7)#42
                                 - X_(V0)(3)(8)#43 - X_(V0)(3)(9)#44
                                 + X_(V0)(4)(3)#47 + X_(V0)(5)(3)#56
                                 + X_(V0)(6)(3)#65 + X_(V0)(7)(3)#74
                                 + X_(V0)(8)(3)#83 + X_(V0)(9)(3)#92 <= 0
 c27#26:                         X_(V0)(0)(4)#3 - X_(V0)(4)(0)#12
                                 + X_(V0)(1)(4)#21 + X_(V0)(2)(4)#30
                                 + X_(V0)(3)(4)#39 - X_(V0)(4)(1)#45
                                 - X_(V0)(4)(2)#46 - X_(V0)(4)(3)#47
                                 - X_(V0)(4)(5)#49 - X_(V0)(4)(6)#50
                                 - X_(V0)(4)(7)#51 - X_(V0)(4)(8)#52
                                 - X_(V0)(4)(9)#53 + X_(V0)(5)(4)#57
                                 + X_(V0)(6)(4)#66 + X_(V0)(7)(4)#75
                                 + X_(V0)(8)(4)#84 + X_(V0)(9)(4)#93 <= 0
 c28#27:                         X_(V0)(0)(5)#4 - X_(V0)(5)(0)#13
                                 + X_(V0)(1)(5)#22 + X_(V0)(2)(5)#31
                                 + X_(V0)(3)(5)#40 + X_(V0)(4)(5)#49
                                 - X_(V0)(5)(1)#54 - X_(V0)(5)(2)#55
                                 - X_(V0)(5)(3)#56 - X_(V0)(5)(4)#57
                                 - X_(V0)(5)(6)#59 - X_(V0)(5)(7)#60
                                 - X_(V0)(5)(8)#61 - X_(V0)(5)(9)#62
                                 + X_(V0)(6)(5)#67 + X_(V0)(7)(5)#76
                                 + X_(V0)(8)(5)#85 + X_(V0)(9)(5)#94 <= 0
 c29#28:                         X_(V0)(0)(6)#5 - X_(V0)(6)(0)#14
                                 + X_(V0)(1)(6)#23 + X_(V0)(2)(6)#32
                                 + X_(V0)(3)(6)#41 + X_(V0)(4)(6)#50
                                 + X_(V0)(5)(6)#59 - X_(V0)(6)(1)#63
                                 - X_(V0)(6)(2)#64 - X_(V0)(6)(3)#65
                                 - X_(V0)(6)(4)#66 - X_(V0)(6)(5)#67
                                 - X_(V0)(6)(7)#69 - X_(V0)(6)(8)#70
                                 - X_(V0)(6)(9)#71 + X_(V0)(7)(6)#77
                                 + X_(V0)(8)(6)#86 + X_(V0)(9)(6)#95 <= 0
 c30#29:                         X_(V0)(0)(7)#6 - X_(V0)(7)(0)#15
                                 + X_(V0)(1)(7)#24 + X_(V0)(2)(7)#33
                                 + X_(V0)(3)(7)#42 + X_(V0)(4)(7)#51
                                 + X_(V0)(5)(7)#60 + X_(V0)(6)(7)#69
                                 - X_(V0)(7)(1)#72 - X_(V0)(7)(2)#73
                                 - X_(V0)(7)(3)#74 - X_(V0)(7)(4)#75
                                 - X_(V0)(7)(5)#76 - X_(V0)(7)(6)#77
                                 - X_(V0)(7)(8)#79 - X_(V0)(7)(9)#80
                                 + X_(V0)(8)(7)#87 + X_(V0)(9)(7)#96 <= 0
 c31#30:                         X_(V0)(0)(8)#7 - X_(V0)(8)(0)#16
                                 + X_(V0)(1)(8)#25 + X_(V0)(2)(8)#34
                                 + X_(V0)(3)(8)#43 + X_(V0)(4)(8)#52
                                 + X_(V0)(5)(8)#61 + X_(V0)(6)(8)#70
                                 + X_(V0)(7)(8)#79 - X_(V0)(8)(1)#81
                                 - X_(V0)(8)(2)#82 - X_(V0)(8)(3)#83
                                 - X_(V0)(8)(4)#84 - X_(V0)(8)(5)#85
                                 - X_(V0)(8)(6)#86 - X_(V0)(8)(7)#87
                                 - X_(V0)(8)(9)#89 + X_(V0)(9)(8)#97 <= 0
 c32#31:                         X_(V0)(0)(9)#8 - X_(V0)(9)(0)#17
                                 + X_(V0)(1)(9)#26 + X_(V0)(2)(9)#35
                                 + X_(V0)(3)(9)#44 + X_(V0)(4)(9)#53
                                 + X_(V0)(5)(9)#62 + X_(V0)(6)(9)#71
                                 + X_(V0)(7)(9)#80 + X_(V0)(8)(9)#89
                                 - X_(V0)(9)(1)#90 - X_(V0)(9)(2)#91
                                 - X_(V0)(9)(3)#92 - X_(V0)(9)(4)#93
                                 - X_(V0)(9)(5)#94 - X_(V0)(9)(6)#95
                                 - X_(V0)(9)(7)#96 - X_(V0)(9)(8)#97 <= 0
 c33#32:                         10 X_(V0)(1)(1)#18 <= 9
 c34#33:                         10 X_(V0)(1)(2)#19 + x101#100 - x102#101 <= 9
 c35#34:                         10 X_(V0)(1)(3)#20 + x101#100 - x103#102 <= 9
 c36#35:                         10 X_(V0)(1)(4)#21 + x101#100 - x104#103 <= 9
 c37#36:                         10 X_(V0)(1)(5)#22 + x101#100 - x105#104 <= 9
 c38#37:                         10 X_(V0)(1)(6)#23 + x101#100 - x106#105 <= 9
 c39#38:                         10 X_(V0)(1)(7)#24 + x101#100 - x107#106 <= 9
 c40#39:                         10 X_(V0)(1)(8)#25 + x101#100 - x108#107 <= 9
 c41#40:                         10 X_(V0)(1)(9)#26 + x101#100 - x109#108 <= 9
 c42#41:                         10 X_(V0)(2)(1)#27 - x101#100 + x102#101 <= 9
 c43#42:                         10 X_(V0)(2)(2)#28 <= 9
 c44#43:                         10 X_(V0)(2)(3)#29 + x102#101 - x103#102 <= 9
 c45#44:                         10 X_(V0)(2)(4)#30 + x102#101 - x104#103 <= 9
 c46#45:                         10 X_(V0)(2)(5)#31 + x102#101 - x105#104 <= 9
 c47#46:                         10 X_(V0)(2)(6)#32 + x102#101 - x106#105 <= 9
 c48#47:                         10 X_(V0)(2)(7)#33 + x102#101 - x107#106 <= 9
 c49#48:                         10 X_(V0)(2)(8)#34 + x102#101 - x108#107 <= 9
 c50#49:                         10 X_(V0)(2)(9)#35 + x102#101 - x109#108 <= 9
 c51#50:                         10 X_(V0)(3)(1)#36 - x101#100 + x103#102 <= 9
 c52#51:                         10 X_(V0)(3)(2)#37 - x102#101 + x103#102 <= 9
 c53#52:                         10 X_(V0)(3)(3)#38 <= 9
 c54#53:                         10 X_(V0)(3)(4)#39 + x103#102 - x104#103 <= 9
 c55#54:                         10 X_(V0)(3)(5)#40 + x103#102 - x105#104 <= 9
 c56#55:                         10 X_(V0)(3)(6)#41 + x103#102 - x106#105 <= 9
 c57#56:                         10 X_(V0)(3)(7)#42 + x103#102 - x107#106 <= 9
 c58#57:                         10 X_(V0)(3)(8)#43 + x103#102 - x108#107 <= 9
 c59#58:                         10 X_(V0)(3)(9)#44 + x103#102 - x109#108 <= 9
 c60#59:                         10 X_(V0)(4)(1)#45 - x101#100 + x104#103 <= 9
 c61#60:                         10 X_(V0)(4)(2)#46 - x102#101 + x104#103 <= 9
 c62#61:                         10 X_(V0)(4)(3)#47 - x103#102 + x104#103 <= 9
 c63#62:                         10 X_(V0)(4)(4)#48 <= 9
 c64#63:                         10 X_(V0)(4)(5)#49 + x104#103 - x105#104 <= 9
 c65#64:                         10 X_(V0)(4)(6)#50 + x104#103 - x106#105 <= 9
 c66#65:                         10 X_(V0)(4)(7)#51 + x104#103 - x107#106 <= 9
 c67#66:                         10 X_(V0)(4)(8)#52 + x104#103 - x108#107 <= 9
 c68#67:                         10 X_(V0)(4)(9)#53 + x104#103 - x109#108 <= 9
 c69#68:                         10 X_(V0)(5)(1)#54 - x101#100 + x105#104 <= 9
 c70#69:                         10 X_(V0)(5)(2)#55 - x102#101 + x105#104 <= 9
 c71#70:                         10 X_(V0)(5)(3)#56 - x103#102 + x105#104 <= 9
 c72#71:                         10 X_(V0)(5)(4)#57 - x104#103 + x105#104 <= 9
 c73#72:                         10 X_(V0)(5)(5)#58 <= 9
 c74#73:                         10 X_(V0)(5)(6)#59 + x105#104 - x106#105 <= 9
 c75#74:                         10 X_(V0)(5)(7)#60 + x105#104 - x107#106 <= 9
 c76#75:                         10 X_(V0)(5)(8)#61 + x105#104 - x108#107 <= 9
 c77#76:                         10 X_(V0)(5)(9)#62 + x105#104 - x109#108 <= 9
 c78#77:                         10 X_(V0)(6)(1)#63 - x101#100 + x106#105 <= 9
 c79#78:                         10 X_(V0)(6)(2)#64 - x102#101 + x106#105 <= 9
 c80#79:                         10 X_(V0)(6)(3)#65 - x103#102 + x106#105 <= 9
 c81#80:                         10 X_(V0)(6)(4)#66 - x104#103 + x106#105 <= 9
 c82#81:                         10 X_(V0)(6)(5)#67 - x105#104 + x106#105 <= 9
 c83#82:                         10 X_(V0)(6)(6)#68 <= 9
 c84#83:                         10 X_(V0)(6)(7)#69 + x106#105 - x107#106 <= 9
 c85#84:                         10 X_(V0)(6)(8)#70 + x106#105 - x108#107 <= 9
 c86#85:                         10 X_(V0)(6)(9)#71 + x106#105 - x109#108 <= 9
 c87#86:                         10 X_(V0)(7)(1)#72 - x101#100 + x107#106 <= 9
 c88#87:                         10 X_(V0)(7)(2)#73 - x102#101 + x107#106 <= 9
 c89#88:                         10 X_(V0)(7)(3)#74 - x103#102 + x107#106 <= 9
 c90#89:                         10 X_(V0)(7)(4)#75 - x104#103 + x107#106 <= 9
 c91#90:                         10 X_(V0)(7)(5)#76 - x105#104 + x107#106 <= 9
 c92#91:                         10 X_(V0)(7)(6)#77 - x106#105 + x107#106 <= 9
 c93#92:                         10 X_(V0)(7)(7)#78 <= 9
 c94#93:                         10 X_(V0)(7)(8)#79 + x107#106 - x108#107 <= 9
 c95#94:                         10 X_(V0)(7)(9)#80 + x107#106 - x109#108 <= 9
 c96#95:                         10 X_(V0)(8)(1)#81 - x101#100 + x108#107 <= 9
 c97#96:                         10 X_(V0)(8)(2)#82 - x102#101 + x108#107 <= 9
 c98#97:                         10 X_(V0)(8)(3)#83 - x103#102 + x108#107 <= 9
 c99#98:                         10 X_(V0)(8)(4)#84 - x104#103 + x108#107 <= 9
 c100#99:                        10 X_(V0)(8)(5)#85 - x105#104 + x108#107 <= 9
 c101#100:                       10 X_(V0)(8)(6)#86 - x106#105 + x108#107 <= 9
 c102#101:                       10 X_(V0)(8)(7)#87 - x107#106 + x108#107 <= 9
 c103#102:                       10 X_(V0)(8)(8)#88 <= 9
 c104#103:                       10 X_(V0)(8)(9)#89 + x108#107 - x109#108 <= 9
 c105#104:                       10 X_(V0)(9)(1)#90 - x101#100 + x109#108 <= 9
 c106#105:                       10 X_(V0)(9)(2)#91 - x102#101 + x109#108 <= 9
 c107#106:                       10 X_(V0)(9)(3)#92 - x103#102 + x109#108 <= 9
 c108#107:                       10 X_(V0)(9)(4)#93 - x104#103 + x109#108 <= 9
 c109#108:                       10 X_(V0)(9)(5)#94 - x105#104 + x109#108 <= 9
 c110#109:                       10 X_(V0)(9)(6)#95 - x106#105 + x109#108 <= 9
 c111#110:                       10 X_(V0)(9)(7)#96 - x107#106 + x109#108 <= 9
 c112#111:                       10 X_(V0)(9)(8)#97 - x108#107 + x109#108 <= 9
 c113#112:                       10 X_(V0)(9)(9)#98 <= 9
 q1:  [ X_(V0)(0)(1)#0 * X_(V0)(1)(0)#9 ] <= 0
 q2:  [ X_(V0)(0)(2)#1 * X_(V0)(2)(0)#10 ] <= 0
 q3:  [ X_(V0)(0)(3)#2 * X_(V0)(3)(0)#11 ] <= 0
 q4:  [ X_(V0)(0)(4)#3 * X_(V0)(4)(0)#12 ] <= 0
 q5:  [ X_(V0)(0)(5)#4 * X_(V0)(5)(0)#13 ] <= 0
 q6:  [ X_(V0)(0)(6)#5 * X_(V0)(6)(0)#14 ] <= 0
 q7:  [ X_(V0)(0)(7)#6 * X_(V0)(7)(0)#15 ] <= 0
 q8:  [ X_(V0)(0)(8)#7 * X_(V0)(8)(0)#16 ] <= 0
 q9:  [ X_(V0)(0)(9)#8 * X_(V0)(9)(0)#17 ] <= 0
 q10: [ X_(V0)(1)(1)#18 ^2 ] <= 0
 q11: [ X_(V0)(1)(2)#19 * X_(V0)(2)(1)#27 ] <= 0
 q12: [ X_(V0)(1)(3)#20 * X_(V0)(3)(1)#36 ] <= 0
 q13: [ X_(V0)(1)(4)#21 * X_(V0)(4)(1)#45 ] <= 0
 q14: [ X_(V0)(1)(5)#22 * X_(V0)(5)(1)#54 ] <= 0
 q15: [ X_(V0)(1)(6)#23 * X_(V0)(6)(1)#63 ] <= 0
 q16: [ X_(V0)(1)(7)#24 * X_(V0)(7)(1)#72 ] <= 0
 q17: [ X_(V0)(1)(8)#25 * X_(V0)(8)(1)#81 ] <= 0
 q18: [ X_(V0)(1)(9)#26 * X_(V0)(9)(1)#90 ] <= 0
 q19: [ X_(V0)(1)(2)#19 * X_(V0)(2)(1)#27 ] <= 0
 q20: [ X_(V0)(2)(2)#28 ^2 ] <= 0
 q21: [ X_(V0)(2)(3)#29 * X_(V0)(3)(2)#37 ] <= 0
 q22: [ X_(V0)(2)(4)#30 * X_(V0)(4)(2)#46 ] <= 0
 q23: [ X_(V0)(2)(5)#31 * X_(V0)(5)(2)#55 ] <= 0
 q24: [ X_(V0)(2)(6)#32 * X_(V0)(6)(2)#64 ] <= 0
 q25: [ X_(V0)(2)(7)#33 * X_(V0)(7)(2)#73 ] <= 0
 q26: [ X_(V0)(2)(8)#34 * X_(V0)(8)(2)#82 ] <= 0
 q27: [ X_(V0)(2)(9)#35 * X_(V0)(9)(2)#91 ] <= 0
 q28: [ X_(V0)(1)(3)#20 * X_(V0)(3)(1)#36 ] <= 0
 q29: [ X_(V0)(2)(3)#29 * X_(V0)(3)(2)#37 ] <= 0
 q30: [ X_(V0)(3)(3)#38 ^2 ] <= 0
 q31: [ X_(V0)(3)(4)#39 * X_(V0)(4)(3)#47 ] <= 0
 q32: [ X_(V0)(3)(5)#40 * X_(V0)(5)(3)#56 ] <= 0
 q33: [ X_(V0)(3)(6)#41 * X_(V0)(6)(3)#65 ] <= 0
 q34: [ X_(V0)(3)(7)#42 * X_(V0)(7)(3)#74 ] <= 0
 q35: [ X_(V0)(3)(8)#43 * X_(V0)(8)(3)#83 ] <= 0
 q36: [ X_(V0)(3)(9)#44 * X_(V0)(9)(3)#92 ] <= 0
 q37: [ X_(V0)(1)(4)#21 * X_(V0)(4)(1)#45 ] <= 0
 q38: [ X_(V0)(2)(4)#30 * X_(V0)(4)(2)#46 ] <= 0
 q39: [ X_(V0)(3)(4)#39 * X_(V0)(4)(3)#47 ] <= 0
 q40: [ X_(V0)(4)(4)#48 ^2 ] <= 0
 q41: [ X_(V0)(4)(5)#49 * X_(V0)(5)(4)#57 ] <= 0
 q42: [ X_(V0)(4)(6)#50 * X_(V0)(6)(4)#66 ] <= 0
 q43: [ X_(V0)(4)(7)#51 * X_(V0)(7)(4)#75 ] <= 0
 q44: [ X_(V0)(4)(8)#52 * X_(V0)(8)(4)#84 ] <= 0
 q45: [ X_(V0)(4)(9)#53 * X_(V0)(9)(4)#93 ] <= 0
 q46: [ X_(V0)(1)(5)#22 * X_(V0)(5)(1)#54 ] <= 0
 q47: [ X_(V0)(2)(5)#31 * X_(V0)(5)(2)#55 ] <= 0
 q48: [ X_(V0)(3)(5)#40 * X_(V0)(5)(3)#56 ] <= 0
 q49: [ X_(V0)(4)(5)#49 * X_(V0)(5)(4)#57 ] <= 0
 q50: [ X_(V0)(5)(5)#58 ^2 ] <= 0
 q51: [ X_(V0)(5)(6)#59 * X_(V0)(6)(5)#67 ] <= 0
 q52: [ X_(V0)(5)(7)#60 * X_(V0)(7)(5)#76 ] <= 0
 q53: [ X_(V0)(5)(8)#61 * X_(V0)(8)(5)#85 ] <= 0
 q54: [ X_(V0)(5)(9)#62 * X_(V0)(9)(5)#94 ] <= 0
 q55: [ X_(V0)(1)(6)#23 * X_(V0)(6)(1)#63 ] <= 0
 q56: [ X_(V0)(2)(6)#32 * X_(V0)(6)(2)#64 ] <= 0
 q57: [ X_(V0)(3)(6)#41 * X_(V0)(6)(3)#65 ] <= 0
 q58: [ X_(V0)(4)(6)#50 * X_(V0)(6)(4)#66 ] <= 0
 q59: [ X_(V0)(5)(6)#59 * X_(V0)(6)(5)#67 ] <= 0
 q60: [ X_(V0)(6)(6)#68 ^2 ] <= 0
 q61: [ X_(V0)(6)(7)#69 * X_(V0)(7)(6)#77 ] <= 0
 q62: [ X_(V0)(6)(8)#70 * X_(V0)(8)(6)#86 ] <= 0
 q63: [ X_(V0)(6)(9)#71 * X_(V0)(9)(6)#95 ] <= 0
 q64: [ X_(V0)(1)(7)#24 * X_(V0)(7)(1)#72 ] <= 0
 q65: [ X_(V0)(2)(7)#33 * X_(V0)(7)(2)#73 ] <= 0
 q66: [ X_(V0)(3)(7)#42 * X_(V0)(7)(3)#74 ] <= 0
 q67: [ X_(V0)(4)(7)#51 * X_(V0)(7)(4)#75 ] <= 0
 q68: [ X_(V0)(5)(7)#60 * X_(V0)(7)(5)#76 ] <= 0
 q69: [ X_(V0)(6)(7)#69 * X_(V0)(7)(6)#77 ] <= 0
 q70: [ X_(V0)(7)(7)#78 ^2 ] <= 0
 q71: [ X_(V0)(7)(8)#79 * X_(V0)(8)(7)#87 ] <= 0
 q72: [ X_(V0)(7)(9)#80 * X_(V0)(9)(7)#96 ] <= 0
 q73: [ X_(V0)(1)(8)#25 * X_(V0)(8)(1)#81 ] <= 0
 q74: [ X_(V0)(2)(8)#34 * X_(V0)(8)(2)#82 ] <= 0
 q75: [ X_(V0)(3)(8)#43 * X_(V0)(8)(3)#83 ] <= 0
 q76: [ X_(V0)(4)(8)#52 * X_(V0)(8)(4)#84 ] <= 0
 q77: [ X_(V0)(5)(8)#61 * X_(V0)(8)(5)#85 ] <= 0
 q78: [ X_(V0)(6)(8)#70 * X_(V0)(8)(6)#86 ] <= 0
 q79: [ X_(V0)(7)(8)#79 * X_(V0)(8)(7)#87 ] <= 0
 q80: [ X_(V0)(8)(8)#88 ^2 ] <= 0
 q81: [ X_(V0)(8)(9)#89 * X_(V0)(9)(8)#97 ] <= 0
 q82: [ X_(V0)(1)(9)#26 * X_(V0)(9)(1)#90 ] <= 0
 q83: [ X_(V0)(2)(9)#35 * X_(V0)(9)(2)#91 ] <= 0
 q84: [ X_(V0)(3)(9)#44 * X_(V0)(9)(3)#92 ] <= 0
 q85: [ X_(V0)(4)(9)#53 * X_(V0)(9)(4)#93 ] <= 0
 q86: [ X_(V0)(5)(9)#62 * X_(V0)(9)(5)#94 ] <= 0
 q87: [ X_(V0)(6)(9)#71 * X_(V0)(9)(6)#95 ] <= 0
 q88: [ X_(V0)(7)(9)#80 * X_(V0)(9)(7)#96 ] <= 0
 q89: [ X_(V0)(8)(9)#89 * X_(V0)(9)(8)#97 ] <= 0
 q90: [ X_(V0)(9)(9)#98 ^2 ] <= 0
Bounds
 0 <= X_(V0)(0)(1)#0 <= 1
 0 <= X_(V0)(0)(2)#1 <= 1
 0 <= X_(V0)(0)(3)#2 <= 1
 0 <= X_(V0)(0)(4)#3 <= 1
 0 <= X_(V0)(0)(5)#4 <= 1
 0 <= X_(V0)(0)(6)#5 <= 1
 0 <= X_(V0)(0)(7)#6 <= 1
 0 <= X_(V0)(0)(8)#7 <= 1
 0 <= X_(V0)(0)(9)#8 <= 1
 0 <= X_(V0)(1)(0)#9 <= 1
 0 <= X_(V0)(2)(0)#10 <= 1
 0 <= X_(V0)(3)(0)#11 <= 1
 0 <= X_(V0)(4)(0)#12 <= 1
 0 <= X_(V0)(5)(0)#13 <= 1
 0 <= X_(V0)(6)(0)#14 <= 1
 0 <= X_(V0)(7)(0)#15 <= 1
 0 <= X_(V0)(8)(0)#16 <= 1
 0 <= X_(V0)(9)(0)#17 <= 1
 0 <= X_(V0)(1)(1)#18 <= 1
 0 <= X_(V0)(1)(2)#19 <= 1
 0 <= X_(V0)(1)(3)#20 <= 1
 0 <= X_(V0)(1)(4)#21 <= 1
 0 <= X_(V0)(1)(5)#22 <= 1
 0 <= X_(V0)(1)(6)#23 <= 1
 0 <= X_(V0)(1)(7)#24 <= 1
 0 <= X_(V0)(1)(8)#25 <= 1
 0 <= X_(V0)(1)(9)#26 <= 1
 0 <= X_(V0)(2)(1)#27 <= 1
 0 <= X_(V0)(2)(2)#28 <= 1
 0 <= X_(V0)(2)(3)#29 <= 1
 0 <= X_(V0)(2)(4)#30 <= 1
 0 <= X_(V0)(2)(5)#31 <= 1
 0 <= X_(V0)(2)(6)#32 <= 1
 0 <= X_(V0)(2)(7)#33 <= 1
 0 <= X_(V0)(2)(8)#34 <= 1
 0 <= X_(V0)(2)(9)#35 <= 1
 0 <= X_(V0)(3)(1)#36 <= 1
 0 <= X_(V0)(3)(2)#37 <= 1
 0 <= X_(V0)(3)(3)#38 <= 1
 0 <= X_(V0)(3)(4)#39 <= 1
 0 <= X_(V0)(3)(5)#40 <= 1
 0 <= X_(V0)(3)(6)#41 <= 1
 0 <= X_(V0)(3)(7)#42 <= 1
 0 <= X_(V0)(3)(8)#43 <= 1
 0 <= X_(V0)(3)(9)#44 <= 1
 0 <= X_(V0)(4)(1)#45 <= 1
 0 <= X_(V0)(4)(2)#46 <= 1
 0 <= X_(V0)(4)(3)#47 <= 1
 0 <= X_(V0)(4)(4)#48 <= 1
 0 <= X_(V0)(4)(5)#49 <= 1
 0 <= X_(V0)(4)(6)#50 <= 1
 0 <= X_(V0)(4)(7)#51 <= 1
 0 <= X_(V0)(4)(8)#52 <= 1
 0 <= X_(V0)(4)(9)#53 <= 1
 0 <= X_(V0)(5)(1)#54 <= 1
 0 <= X_(V0)(5)(2)#55 <= 1
 0 <= X_(V0)(5)(3)#56 <= 1
 0 <= X_(V0)(5)(4)#57 <= 1
 0 <= X_(V0)(5)(5)#58 <= 1
 0 <= X_(V0)(5)(6)#59 <= 1
 0 <= X_(V0)(5)(7)#60 <= 1
 0 <= X_(V0)(5)(8)#61 <= 1
 0 <= X_(V0)(5)(9)#62 <= 1
 0 <= X_(V0)(6)(1)#63 <= 1
 0 <= X_(V0)(6)(2)#64 <= 1
 0 <= X_(V0)(6)(3)#65 <= 1
 0 <= X_(V0)(6)(4)#66 <= 1
 0 <= X_(V0)(6)(5)#67 <= 1
 0 <= X_(V0)(6)(6)#68 <= 1
 0 <= X_(V0)(6)(7)#69 <= 1
 0 <= X_(V0)(6)(8)#70 <= 1
 0 <= X_(V0)(6)(9)#71 <= 1
 0 <= X_(V0)(7)(1)#72 <= 1
 0 <= X_(V0)(7)(2)#73 <= 1
 0 <= X_(V0)(7)(3)#74 <= 1
 0 <= X_(V0)(7)(4)#75 <= 1
 0 <= X_(V0)(7)(5)#76 <= 1
 0 <= X_(V0)(7)(6)#77 <= 1
 0 <= X_(V0)(7)(7)#78 <= 1
 0 <= X_(V0)(7)(8)#79 <= 1
 0 <= X_(V0)(7)(9)#80 <= 1
 0 <= X_(V0)(8)(1)#81 <= 1
 0 <= X_(V0)(8)(2)#82 <= 1
 0 <= X_(V0)(8)(3)#83 <= 1
 0 <= X_(V0)(8)(4)#84 <= 1
 0 <= X_(V0)(8)(5)#85 <= 1
 0 <= X_(V0)(8)(6)#86 <= 1
 0 <= X_(V0)(8)(7)#87 <= 1
 0 <= X_(V0)(8)(8)#88 <= 1
 0 <= X_(V0)(8)(9)#89 <= 1
 0 <= X_(V0)(9)(1)#90 <= 1
 0 <= X_(V0)(9)(2)#91 <= 1
 0 <= X_(V0)(9)(3)#92 <= 1
 0 <= X_(V0)(9)(4)#93 <= 1
 0 <= X_(V0)(9)(5)#94 <= 1
 0 <= X_(V0)(9)(6)#95 <= 1
 0 <= X_(V0)(9)(7)#96 <= 1
 0 <= X_(V0)(9)(8)#97 <= 1
 0 <= X_(V0)(9)(9)#98 <= 1
 0 <= X_(V0)(0)(0)#99 <= 1
 2 <= x101#100 <= 10
 2 <= x102#101 <= 10
 2 <= x103#102 <= 10
 2 <= x104#103 <= 10
 2 <= x105#104 <= 10
 2 <= x106#105 <= 10
 2 <= x107#106 <= 10
 2 <= x108#107 <= 10
 2 <= x109#108 <= 10
Binaries
 X_(V0)(0)(1)#0  X_(V0)(0)(2)#1  X_(V0)(0)(3)#2  X_(V0)(0)(4)#3 
 X_(V0)(0)(5)#4  X_(V0)(0)(6)#5  X_(V0)(0)(7)#6  X_(V0)(0)(8)#7 
 X_(V0)(0)(9)#8  X_(V0)(1)(0)#9  X_(V0)(2)(0)#10  X_(V0)(3)(0)#11 
 X_(V0)(4)(0)#12  X_(V0)(5)(0)#13  X_(V0)(6)(0)#14  X_(V0)(7)(0)#15 
 X_(V0)(8)(0)#16  X_(V0)(9)(0)#17  X_(V0)(1)(1)#18  X_(V0)(1)(2)#19 
 X_(V0)(1)(3)#20  X_(V0)(1)(4)#21  X_(V0)(1)(5)#22  X_(V0)(1)(6)#23 
 X_(V0)(1)(7)#24  X_(V0)(1)(8)#25  X_(V0)(1)(9)#26  X_(V0)(2)(1)#27 
 X_(V0)(2)(2)#28  X_(V0)(2)(3)#29  X_(V0)(2)(4)#30  X_(V0)(2)(5)#31 
 X_(V0)(2)(6)#32  X_(V0)(2)(7)#33  X_(V0)(2)(8)#34  X_(V0)(2)(9)#35 
 X_(V0)(3)(1)#36  X_(V0)(3)(2)#37  X_(V0)(3)(3)#38  X_(V0)(3)(4)#39 
 X_(V0)(3)(5)#40  X_(V0)(3)(6)#41  X_(V0)(3)(7)#42  X_(V0)(3)(8)#43 
 X_(V0)(3)(9)#44  X_(V0)(4)(1)#45  X_(V0)(4)(2)#46  X_(V0)(4)(3)#47 
 X_(V0)(4)(4)#48  X_(V0)(4)(5)#49  X_(V0)(4)(6)#50  X_(V0)(4)(7)#51 
 X_(V0)(4)(8)#52  X_(V0)(4)(9)#53  X_(V0)(5)(1)#54  X_(V0)(5)(2)#55 
 X_(V0)(5)(3)#56  X_(V0)(5)(4)#57  X_(V0)(5)(5)#58  X_(V0)(5)(6)#59 
 X_(V0)(5)(7)#60  X_(V0)(5)(8)#61  X_(V0)(5)(9)#62  X_(V0)(6)(1)#63 
 X_(V0)(6)(2)#64  X_(V0)(6)(3)#65  X_(V0)(6)(4)#66  X_(V0)(6)(5)#67 
 X_(V0)(6)(6)#68  X_(V0)(6)(7)#69  X_(V0)(6)(8)#70  X_(V0)(6)(9)#71 
 X_(V0)(7)(1)#72  X_(V0)(7)(2)#73  X_(V0)(7)(3)#74  X_(V0)(7)(4)#75 
 X_(V0)(7)(5)#76  X_(V0)(7)(6)#77  X_(V0)(7)(7)#78  X_(V0)(7)(8)#79 
 X_(V0)(7)(9)#80  X_(V0)(8)(1)#81  X_(V0)(8)(2)#82  X_(V0)(8)(3)#83 
 X_(V0)(8)(4)#84  X_(V0)(8)(5)#85  X_(V0)(8)(6)#86  X_(V0)(8)(7)#87 
 X_(V0)(8)(8)#88  X_(V0)(8)(9)#89  X_(V0)(9)(1)#90  X_(V0)(9)(2)#91 
 X_(V0)(9)(3)#92  X_(V0)(9)(4)#93  X_(V0)(9)(5)#94  X_(V0)(9)(6)#95 
 X_(V0)(9)(7)#96  X_(V0)(9)(8)#97  X_(V0)(9)(9)#98  X_(V0)(0)(0)#99 
Generals
 x101#100  x102#101  x103#102  x104#103  x105#104  x106#105  x107#106 
 x108#107  x109#108 
End
